instances/in_60_30_9_4.lp
#const n = 60.
#const k = 30.
#const h = 9.
tile(1,13,28).
tile(2,3,13).
tile(3,21,23).
tile(4,25,13).
tile(5,12,27).
tile(6,26,29).
tile(7,23,16).
tile(8,28,27).
tile(9,26,23).
tile(10,25,24).
tile(11,16,7).
tile(12,22,20).
tile(13,4,22).
tile(14,1,8).
tile(15,29,7).
tile(16,30,18).
tile(17,9,2).
tile(18,2,27).
tile(19,29,29).
tile(20,25,5).
tile(21,14,15).
tile(22,22,5).
tile(23,4,7).
tile(24,21,3).
tile(25,4,3).
tile(26,3,30).
tile(27,29,14).
tile(28,3,11).
tile(29,22,11).
tile(30,18,30).
tile(31,4,18).
tile(32,2,30).
tile(33,21,30).
tile(34,5,1).
tile(35,23,2).
tile(36,15,16).
tile(37,27,22).
tile(38,26,28).
tile(39,2,7).
tile(40,29,26).
tile(41,29,24).
tile(42,8,17).
tile(43,14,15).
tile(44,10,8).
tile(45,11,1).
tile(46,10,29).
tile(47,14,25).
tile(48,19,1).
tile(49,1,28).
tile(50,27,13).
tile(51,3,16).
tile(52,4,11).
tile(53,28,12).
tile(54,21,27).
tile(55,28,12).
tile(56,16,14).
tile(57,23,6).
tile(58,18,18).
tile(59,23,20).
tile(60,18,24).
