minizinc/input/in_60_30_9_4.dzn
n = 60;
k = 30;
h = 9;
tiles = array2d(1..n, 1..2,
[ 13,28
, 3,13
, 21,23
, 25,13
, 12,27
, 26,29
, 23,16
, 28,27
, 26,23
, 25,24
, 16,7
, 22,20
, 4,22
, 1,8
, 29,7
, 30,18
, 9,2
, 2,27
, 29,29
, 25,5
, 14,15
, 22,5
, 4,7
, 21,3
, 4,3
, 3,30
, 29,14
, 3,11
, 22,11
, 18,30
, 4,18
, 2,30
, 21,30
, 5,1
, 23,2
, 15,16
, 27,22
, 26,28
, 2,7
, 29,26
, 29,24
, 8,17
, 14,15
, 10,8
, 11,1
, 10,29
, 14,25
, 19,1
, 1,28
, 27,13
, 3,16
, 4,11
, 28,12
, 21,27
, 28,12
, 16,14
, 23,6
, 18,18
, 23,20
, 18,24
]);